NAME : kroA200.13406.tour
COMMENT : Length = 13406
COMMENT : Found by LKH [Keld Helsgaun] Sat May 25 06:41:05 2013
TYPE : TOUR
DIMENSION : 40
TOUR_SECTION
111
132
27
193
167
158
31
47
112
8
143
103
114
130
72
196
5
195
182
150
173
23
164
89
59
69
108
4
106
92
104
165
48
44
63
16
78
7
32
172
-1
EOF
